rust/resources/empty_bounds.lp
\ LP format example

Minimize
obj:  x + 10 y
Subject To
r01:  x + y  >= 1
Bounds
Binaries
 x y
End
